 &control
    calculation = 'vc-relax',
    restart_mode = 'from_scratch',
    prefix = 'Prototype-La-oP16-Fe3C',
    tstress = .true.,
    tprnfor = .true.,
    wf_collect = .false.
    pseudo_dir = '/home/cwx6513/pp.La/',
    outdir='./out'
 /
 &system
    ibrav =  0,
    nat =  16,
    ntyp = 2,
    ecutwfc = 40.0,
    ecutrho = 160.0

    occupations = 'smearing'
    smearing = 'gaussian'
    degauss = 0.1
 /
 &electrons
    diagonalization='cg',
    mixing_mode = 'plain',
    mixing_beta = 0.7,
    conv_thr =  1.0d-4
 /
 &ions
    ion_dynamics='bfgs'
    trust_radius_min = 1.0d3
 /
 &cell
    cell_dynamics='bfgs'
 /


ATOMIC_SPECIES
   Fe   55.8450000000  Tb.UPF
    C   12.0107000000  Tm.UPF

ATOMIC_POSITIONS crystal
Fe      0.34729400000000      0.16863600000000      0.92247800000000
Fe      0.15270600000000      0.66863600000000      0.57752200000000
Fe      0.84729400000000      0.33136400000000      0.42247800000000
Fe      0.33966400000000      0.45020900000000      0.25000000000000
Fe      0.15270600000000      0.66863600000000      0.92247800000000
Fe      0.34729400000000      0.16863600000000      0.57752200000000
Fe      0.16033600000000      0.95020900000000      0.25000000000000
Fe      0.65270600000000      0.83136400000000      0.42247800000000
Fe      0.84729400000000      0.33136400000000      0.07752200000000
Fe      0.66033600000000      0.54979100000000      0.75000000000000
Fe      0.65270600000000      0.83136400000000      0.07752200000000
Fe      0.83966400000000      0.04979100000000      0.75000000000000
 C      0.00000000000000      0.00000000000000      0.00000000000000
 C      0.50000000000000      0.50000000000000      0.00000000000000
 C      0.50000000000000      0.50000000000000      0.50000000000000
 C      0.00000000000000      0.00000000000000      0.50000000000000

K_POINTS automatic
    2  3  4 0  0  0

CELL_PARAMETERS
     8.80076498740998      0.00000000000000      0.00000000000000
     0.00000000000000      9.53801510315425      0.00000000000000
     0.00000000000000      0.00000000000000     13.30618349523841



