 &control
    calculation = 'vc-relax',
    restart_mode = 'from_scratch',
    prefix = 'Prototype-La-oS8-TlI',
    tstress = .true.,
    tprnfor = .true.,
    wf_collect = .false.
    pseudo_dir = '/home/cwx6513/pp.La/',
    outdir='./out'
 /
 &system
    ibrav =  0,
    nat =  4,
    ntyp = 2,
    ecutwfc = 40.0,
    ecutrho = 160.0

    occupations = 'smearing'
    smearing = 'gaussian'
    degauss = 0.1
 /
 &electrons
    diagonalization='cg',
    mixing_mode = 'plain',
    mixing_beta = 0.7,
    conv_thr =  1.0d-4
 /
 &ions
    ion_dynamics='bfgs'
    trust_radius_min = 1.0d3
 /
 &cell
    cell_dynamics='bfgs'
 /


ATOMIC_SPECIES
   Tl  204.3830000000  Ce.UPF
    I  126.9040000000  Gd.UPF

ATOMIC_POSITIONS crystal
Tl      0.38601300000000      0.61398700000000      0.75000000000000
Tl      0.61398700000000      0.38601300000000      0.25000000000000
 I      0.13258400000000      0.86741600000000      0.75000000000000
 I      0.86741600000000      0.13258400000000      0.25000000000000

K_POINTS automatic
    5  6  7 0  0  0

CELL_PARAMETERS
    13.39297219107086      0.00000000000000      0.00000000000000
   -10.39710828727534      8.44226529869015      0.00000000000000
     0.00000000000000      0.00000000000000     10.03029452226812



