 &control
    calculation = 'vc-relax',
    restart_mode = 'from_scratch',
    prefix = 'NaCl_pegs+pwscf',
    tstress = .true.,
    tprnfor = .true.,
    pseudo_dir = '/projects/e20438/bin/espresso/pseudo',
    outdir='./'
 /
 &system
    ibrav =  0, 
    nat =  2, 
    ntyp = 2,
    ecutwfc = 60.0,
    ecutrho = 240.0
 /
 &electrons
    diagonalization='cg',
    mixing_mode = 'plain',
    mixing_beta = 0.7,
    conv_thr =  1.0d-8
 /
 &ions
    ion_dynamics='bfgs'
    trust_radius_min = 1.0d-8
 /
 &cell
    cell_dynamics='bfgs'
 /

CELL_PARAMETERS angstrom
     5.65975324000000 0.00000000000000 0.00000000000000
    -0.27940963000000 3.94025639000000 0.00000000000000
     2.65051676000000 1.94632529000000 2.04639297000000

ATOMIC_SPECIES
 Na 22.98977 Na.pbe-spn-kjpaw_psl.0.2.UPF
 Cl 35.4527 Cl.pbe-n-kjpaw_psl.0.1.UPF

ATOMIC_POSITIONS crystal
    Na 0.15203919993600 0.87855930718700 0.76106752659300
    Cl 0.65711323682500 0.88870695572900 0.75131186712400

K_POINTS automatic
7 8 9 0 0 0
