 &control
    calculation = 'vc-relax',
    restart_mode = 'from_scratch',
    prefix = 'NaCl_pegs+pwscf',
    tstress = .true.,
    tprnfor = .true.,
    pseudo_dir = '/projects/e20438/bin/espresso/pseudo',
    outdir='./'
 /
 &system
    ibrav =  0, 
    nat =  2, 
    ntyp = 2,
    ecutwfc = 60.0,
    ecutrho = 240.0
 /
 &electrons
    diagonalization='cg',
    mixing_mode = 'plain',
    mixing_beta = 0.7,
    conv_thr =  1.0d-8
 /
 &ions
    ion_dynamics='bfgs'
    trust_radius_min = 1.0d-8
 /
 &cell
    cell_dynamics='bfgs'
 /

CELL_PARAMETERS angstrom
    4.11478820000000 0.00000000000000 0.00000000000000
    2.02841502000000 3.43195414000000 0.00000000000000
    4.11453971000000 2.19897596000000 3.20478976000000

ATOMIC_SPECIES
 Na 22.98977 Na.pbe-spn-kjpaw_psl.0.2.UPF
 Cl 35.4527 Cl.pbe-n-kjpaw_psl.0.1.UPF

ATOMIC_POSITIONS crystal
    Na 0.79199696586900 0.01003336127800 0.01634376982100
    Cl 0.79206109559400 0.01003375974500 0.51630960527700

K_POINTS automatic
4 5 6 0 0 0
