 &control
    calculation = 'vc-relax',
    restart_mode = 'from_scratch',
    prefix = 'Prototype-La-hP6-CaCu5',
    tstress = .true.,
    tprnfor = .true.,
    wf_collect = .false.
    pseudo_dir = '/home/cwx6513/pp.La/',
    outdir='./out'
 /
 &system
    ibrav =  0,
    nat =  6,
    ntyp = 2,
    ecutwfc = 40.0,
    ecutrho = 160.0

    occupations = 'smearing'
    smearing = 'gaussian'
    degauss = 0.1
 /
 &electrons
    diagonalization='cg',
    mixing_mode = 'plain',
    mixing_beta = 0.7,
    conv_thr =  1.0d-4
 /
 &ions
    ion_dynamics='bfgs'
    trust_radius_min = 1.0d3
 /
 &cell
    cell_dynamics='bfgs'
 /


ATOMIC_SPECIES
   Ca   40.0780000000  Er.UPF
   Cu   63.5460000000  Pm.UPF

ATOMIC_POSITIONS crystal
Ca      0.00000000000000      0.00000000000000      0.00000000000000
Cu      0.33333300000000      0.66666700000000      0.00000000000000
Cu      0.66666700000000      0.33333300000000      0.00000000000000
Cu      0.50000000000000      0.00000000000000      0.50000000000000
Cu      0.50000000000000      0.50000000000000      0.50000000000000
Cu      0.00000000000000      0.50000000000000      0.50000000000000

K_POINTS automatic
    6  7  8 0  0  0

CELL_PARAMETERS
     9.64829492774938      0.00000000000000      0.00000000000000
    -4.82414746387469      8.35566851063551      0.00000000000000
     0.00000000000000      0.00000000000000      7.60833340309635



