! Generated by using cif2qe Version 1.2 - Date: Wed Mar 21 20:27:56 CDT 2018
!   _symmetry_space_group_name_H-M = 
!   _symmetry_Int_Tables_number = 1
!   _symmetry_cell_setting = 
! a=8.81545  b=8.81545  c=8.81545  alpha=23.3803  beta=23.3803  gamma=23.3803
! Found by cif2qe: lattice = rhombohedral    Space group = P1   ibrav = 4
!
!
! Symmetry found:
!   1                        x, y, z    [x]  [ y]  [ z]
&CONTROL
                       title = 'Dy_mp-10658_primitive.cif'
                 calculation = 'relax'
                restart_mode = 'from_scratch'
                      outdir = './1'
                  pseudo_dir = '../PP/atompaw'
                      prefix = 'Dy_mp-10658_primitive'
                     disk_io = 'none'
                   verbosity = 'default'
               etot_conv_thr = 0.0001
               forc_conv_thr = 0.001
                       nstep = 400
                     tstress = .true.
                     tprnfor = .true.
 /
 &SYSTEM
                       ibrav = 0
                         nat = 3
                        ntyp = 1
                     ecutwfc = 60
                     ecutrho = 480
                    vdw_corr = 'xdm'
                      xdm_a1 = 1.2153
                      xdm_a2 = 2.3704
 /
 &ELECTRONS
            electron_maxstep = 200
                    conv_thr = 1.0D-7
              diago_thr_init = 1e-4
                 startingpot = 'atomic'
                 startingwfc = 'atomic'
                 mixing_mode = 'plain'
                 mixing_beta = 0.5
                 mixing_ndim = 8
             diagonalization = 'david'
 /
&IONS
                ion_dynamics = 'bfgs'
 /

ATOMIC_SPECIES
   Dy  162.5000000000  Dy.pw86pbe-n-kjpaw_psl.1.0.0.UPF

ATOMIC_POSITIONS crystal
Dy      0.00000000000000      0.00000000000000      0.00000000000000
Dy      0.22205100000000      0.22205100000000      0.22205100000000
Dy      0.77794900000000      0.77794900000000      0.77794900000000

K_POINTS automatic
2  2  2   0 0 0

CELL_PARAMETERS
    16.65877720749524      0.00000000000000      0.00000000000000
    15.29094716080414      6.61073316466933      0.00000000000000
    15.29094716080414      3.16385738887408      5.80446374761060



