! Generated by using cif2qe Version 1.2 - Date: Wed Mar 21 20:27:57 CDT 2018
!   _symmetry_space_group_name_H-M = 
!   _symmetry_Int_Tables_number = 1
!   _symmetry_cell_setting = 
! a=8.86416  b=8.86416  c=8.86416  alpha=23.375  beta=23.375  gamma=23.375
! Found by cif2qe: lattice = rhombohedral    Space group = P1   ibrav = 4
!
!
! Symmetry found:
!   1                        x, y, z    [x]  [ y]  [ z]
&CONTROL
                       title = 'Tb_mp-11698_primitive.cif'
                 calculation = 'relax'
                restart_mode = 'from_scratch'
                      outdir = './1'
                  pseudo_dir = '../PP/atompaw'
                      prefix = 'Tb_mp-11698_primitive'
                     disk_io = 'none'
                   verbosity = 'default'
               etot_conv_thr = 0.0001
               forc_conv_thr = 0.001
                       nstep = 400
                     tstress = .true.
                     tprnfor = .true.
 /
 &SYSTEM
                       ibrav = 0
                         nat = 3
                        ntyp = 1
                     ecutwfc = 60
                     ecutrho = 480
                    vdw_corr = 'xdm'
                      xdm_a1 = 1.2153
                      xdm_a2 = 2.3704
 /
 &ELECTRONS
            electron_maxstep = 200
                    conv_thr = 1.0D-7
              diago_thr_init = 1e-4
                 startingpot = 'atomic'
                 startingwfc = 'atomic'
                 mixing_mode = 'plain'
                 mixing_beta = 0.5
                 mixing_ndim = 8
             diagonalization = 'david'
 /
&IONS
                ion_dynamics = 'bfgs'
 /

ATOMIC_SPECIES
   Tb  158.9250000000  Tb.pw86pbe-n-kjpaw_psl.1.0.0.UPF

ATOMIC_POSITIONS crystal
Tb      0.00000000000000      0.00000000000000      0.00000000000000
Tb      0.22213400000000      0.22213400000000      0.22213400000000
Tb      0.77786600000000      0.77786600000000      0.77786600000000

K_POINTS automatic
2  2  2   0 0 0

CELL_PARAMETERS
    16.75084407846895      0.00000000000000      0.00000000000000
    15.37606732245510      6.64585066312108      0.00000000000000
    15.37606732245510      3.18073050770120      5.83526215982501



