ATOMIC_SPECIES
   Na   22.9897000000  Na.pw86pbe-n-kjpaw_psl.1.0.0.UPF
   Cl   35.4530000000  Cl.pw86pbe-n-kjpaw_psl.1.0.0.UPF

ATOMIC_POSITIONS crystal
Na      0.00000000000000      0.00000000000000      0.00000000000000
Cl      0.50000000000000      0.50000000000000      0.50000000000000

K_POINTS automatic
4  4  4   0 0 0

CELL_PARAMETERS
     7.60545812810604      0.00000000000000      0.00000000000000
     3.80272906405302      6.58651994635868      0.00000000000000
     3.80272906405302      2.19550664878623      6.20983055798757



