ATOMIC_SPECIES
   Mg   24.3050000000  Mg.pw86pbe-n-kjpaw_psl.1.0.0.UPF
   Zn   65.3900000000  Zn.pw86pbe-n-kjpaw_psl.1.0.0.UPF

ATOMIC_POSITIONS crystal
Mg      0.33333300000000      0.66666700000000      0.06241800000000
Mg      0.66666700000000      0.33333300000000      0.56241800000000
Mg      0.66666700000000      0.33333300000000      0.93758200000000
Mg      0.33333300000000      0.66666700000000      0.43758200000000
Zn      0.00000000000000      0.00000000000000      0.00000000000000
Zn      0.00000000000000      0.00000000000000      0.50000000000000
Zn      0.17036100000000      0.34072200000000      0.75000000000000
Zn      0.82963900000000      0.17036100000000      0.25000000000000
Zn      0.34072200000000      0.17036100000000      0.25000000000000
Zn      0.65927800000000      0.82963900000000      0.75000000000000
Zn      0.17036100000000      0.82963900000000      0.75000000000000
Zn      0.82963900000000      0.65927800000000      0.25000000000000

K_POINTS automatic
3  3  2   0 0 0

CELL_PARAMETERS
     9.92348860010504      0.00000000000000      0.00000000000000
    -4.96174430005252      8.59399322185624      0.00000000000000
     0.00000000000000      0.00000000000000     15.95917489590596



