 &control
    calculation = 'vc-relax',
    restart_mode = 'from_scratch',
    prefix = 'NaCl_pegs+pwscf',
    tstress = .true.,
    tprnfor = .true.,
    pseudo_dir = '/projects/e20438/bin/espresso/pseudo',
    outdir='./'
 /
 &system
    ibrav =  0, 
    nat =  2, 
    ntyp = 2,
    ecutwfc = 60.0,
    ecutrho = 240.0
 /
 &electrons
    diagonalization='cg',
    mixing_mode = 'plain',
    mixing_beta = 0.7,
    conv_thr =  1.0d-8
 /
 &ions
    ion_dynamics='bfgs'
    trust_radius_min = 1.0d-8
 /
 &cell
    cell_dynamics='bfgs'
 /

CELL_PARAMETERS angstrom
    4.12573100000000 0.00000000000000 0.00000000000000
    1.85987199000000 3.30500851000000 0.00000000000000
    3.98438124000000 2.10957836000000 3.41641057000000

ATOMIC_SPECIES
 Na 22.98977 Na.pbe-spn-kjpaw_psl.0.2.UPF
 Cl 35.4527 Cl.pbe-n-kjpaw_psl.0.1.UPF

ATOMIC_POSITIONS crystal
    Na 0.11003135019400 0.76957375518800 0.86681174507900
    Cl 0.14409468125200 0.76834771136700 0.34985027115000

K_POINTS automatic
4 5 6 0 0 0
