 &control
    calculation = 'vc-relax',
    restart_mode = 'from_scratch',
    prefix = 'NaCl_pegs+pwscf',
    tstress = .true.,
    tprnfor = .true.,
    pseudo_dir = '/projects/e20438/bin/espresso/pseudo',
    outdir='./'
 /
 &system
    ibrav =  0, 
    nat =  2, 
    ntyp = 2,
    ecutwfc = 60.0,
    ecutrho = 240.0
 /
 &electrons
    diagonalization='cg',
    mixing_mode = 'plain',
    mixing_beta = 0.7,
    conv_thr =  1.0d-8
 /
 &ions
    ion_dynamics='bfgs'
    trust_radius_min = 1.0d-8
 /
 &cell
    cell_dynamics='bfgs'
 /

CELL_PARAMETERS angstrom
     3.82001939000000  0.00000000000000 0.00000000000000
    -1.57613870000000  3.60487827000000 0.00000000000000
     5.39611428000000 -1.13768599000000 3.36445499000000

ATOMIC_SPECIES
 Na 22.98977 Na.pbe-spn-kjpaw_psl.0.2.UPF
 Cl 35.4527 Cl.pbe-n-kjpaw_psl.0.1.UPF

ATOMIC_POSITIONS crystal
    Na 0.42690316097600 0.61688162053100 0.52702871489000
    Cl 0.45779436381300 0.13320791917900 0.00993296673800

K_POINTS automatic
3 4 5 0 0 0
