 &control
    calculation = 'vc-relax',
    restart_mode = 'from_scratch',
    prefix = 'NaCl_pegs+pwscf',
    tstress = .true.,
    tprnfor = .true.,
    pseudo_dir = '/projects/e20438/bin/espresso/pseudo',
    outdir='./'
 /
 &system
    ibrav =  0, 
    nat =  2, 
    ntyp = 2,
    ecutwfc = 60.0,
    ecutrho = 240.0
 /
 &electrons
    diagonalization='cg',
    mixing_mode = 'plain',
    mixing_beta = 0.7,
    conv_thr =  1.0d-8
 /
 &ions
    ion_dynamics='bfgs'
    trust_radius_min = 1.0d-8
 /
 &cell
    cell_dynamics='bfgs'
 /

CELL_PARAMETERS angstrom
     5.14224954000000 0.00000000000000 0.00000000000000
    -1.34112197000000 3.63409424000000 0.00000000000000
     2.29497323000000 0.84697601000000 2.41194592000000

ATOMIC_SPECIES
 Na 22.98977 Na.pbe-spn-kjpaw_psl.0.2.UPF
 Cl 35.4527 Cl.pbe-n-kjpaw_psl.0.1.UPF

ATOMIC_POSITIONS crystal
    Na 0.73821608125700 0.83415485523100 0.77616718136800
    Cl 0.07577779312600 0.48929593171000 0.93860931078000

K_POINTS automatic
6 7 8 0 0 0
