&SYSTEM
    ibrav = 0
      nat = 2
     ntyp = 2
/

CELL_PARAMETERS angstrom
     3.51586326000000  0.00000000000000 0.00000000000000
     2.72299899000000  3.41195096000000 0.00000000000000
    -0.00000659000000 -0.00015997000000 3.45707399000000

ATOMIC_SPECIES
    Na 22.98976928
    Cl 35.45000000

ATOMIC_POSITIONS crystal
    Na 0.83994153687400 0.47240489758200 0.28873159013500
    Cl 0.02453219428000 0.87965387707700 0.78874946769900
