&SYSTEM
    ibrav = 0
      nat = 2
     ntyp = 2
/

CELL_PARAMETERS angstrom
    3.34000000000000 0.00000000000000 0.00000000000000
    0.00228650000000 3.33999922000000 0.00000000000000
    3.42097036000000 3.47998776000000 3.33613731000000

ATOMIC_SPECIES
    Na 22.98976928
    Cl 35.45000000

ATOMIC_POSITIONS crystal
    Na 0.63969993817000 0.89308241965600 0.96104966107900
    Cl 0.61944149515700 0.90500973383200 0.46969738748000
