&SYSTEM
    ibrav = 0
      nat = 2
     ntyp = 2
/

CELL_PARAMETERS angstrom
     4.10042566000000 0.00000000000000 0.00000000000000
     0.01929679000000 3.92164410000000 0.00000000000000
    -1.93114526000000 1.88076490000000 2.82833652000000

ATOMIC_SPECIES
    Na 22.98976928
    Cl 35.45000000

ATOMIC_POSITIONS crystal
    Na 0.44987924509800 0.95493143594300 0.71685138502900
    Cl 0.94732571258900 0.45258508955900 0.71640224783400
