&SYSTEM
    ibrav = 0
      nat = 2
     ntyp = 2
/

CELL_PARAMETERS angstrom
    4.11478820000000 0.00000000000000 0.00000000000000
    2.02841502000000 3.43195414000000 0.00000000000000
    4.11453971000000 2.19897596000000 3.20478976000000

ATOMIC_SPECIES
    Na 22.98976928
    Cl 35.45000000

ATOMIC_POSITIONS crystal
    Na 0.79199696586900 0.01003336127800 0.01634376982100
    Cl 0.79206109559400 0.01003375974500 0.51630960527700
