&SYSTEM
    ibrav = 0
      nat = 2
     ntyp = 2
/

CELL_PARAMETERS angstrom
     3.34000000000000 0.00000000000000 0.00000000000000
     3.27742192000000 3.33941374000000 0.00000000000000
    -0.17638512000000 0.01104003000000 3.33536991000000

ATOMIC_SPECIES
    Na 22.98976928
    Cl 35.45000000

ATOMIC_POSITIONS crystal
    Na 0.45618622269300 0.32335065998200 0.22654532332900
    Cl 0.49288908819100 0.81679796192900 0.70391300597500
