&SYSTEM
    ibrav = 0
      nat = 2
     ntyp = 2
/

CELL_PARAMETERS angstrom
     5.14224954000000 0.00000000000000 0.00000000000000
    -1.34112197000000 3.63409424000000 0.00000000000000
     2.29497323000000 0.84697601000000 2.41194592000000

ATOMIC_SPECIES
    Na 22.98976928
    Cl 35.45000000

ATOMIC_POSITIONS crystal
    Na 0.73821608125700 0.83415485523100 0.77616718136800
    Cl 0.07577779312600 0.48929593171000 0.93860931078000
