&SYSTEM
    ibrav = 0
      nat = 2
     ntyp = 2
/

CELL_PARAMETERS angstrom
    4.07725437000000 0.00000000000000 0.00000000000000
    2.36893879000000 3.37398408000000 0.00000000000000
    0.71305572000000 4.53663521000000 3.30772341000000

ATOMIC_SPECIES
    Na 22.98976928
    Cl 35.45000000

ATOMIC_POSITIONS crystal
    Na 0.06499190192800 0.87369478706000 0.51393964536600
    Cl 0.05179526583700 0.88712422003700 0.00801624451500
