&SYSTEM
    ibrav = 0
      nat = 2
     ntyp = 2
/

CELL_PARAMETERS angstrom
    6.73465007000000 0.00000000000000 0.00000000000000
    1.42106914000000 3.90296343000000 0.00000000000000
    3.47427477000000 1.16476029000000 1.72330723000000

ATOMIC_SPECIES
    Na 22.98976928
    Cl 35.45000000

ATOMIC_POSITIONS crystal
    Na 0.63902339224700 0.70804365023200 0.19767072091800
    Cl 0.14195673082900 0.21059478325100 0.69466690950000
