&SYSTEM
    ibrav = 0
      nat = 2
     ntyp = 2
/

CELL_PARAMETERS angstrom
    6.23505004000000  0.00000000000000 0.00000000000000
    2.11507914000000  2.65414371000000 0.00000000000000
    2.05652236000000 -1.33244807000000 2.26955960000000

ATOMIC_SPECIES
    Na 22.98976928
    Cl 35.45000000

ATOMIC_POSITIONS crystal
    Na 0.40625477320600 0.50636718931300 0.76266223664400
    Cl 0.90552810462700 0.50546318768400 0.76445523989000
