&SYSTEM
    ibrav = 0
      nat = 2
     ntyp = 2
/

CELL_PARAMETERS angstrom
     3.86182464000000 0.00000000000000 0.00000000000000
     5.57695563000000 3.51818064000000 0.00000000000000
    -0.13737727000000 2.53842755000000 3.41864537000000

ATOMIC_SPECIES
    Na 22.98976928
    Cl 35.45000000

ATOMIC_POSITIONS crystal
    Na 0.34322952336000 0.77331138707900 0.05738177034600
    Cl 0.82738300927500 0.77232768089300 0.57197620498800
