 &control
    calculation = 'vc-relax',
    restart_mode = 'from_scratch',
    prefix = 'Prototype-La-cP8-Cr3Si',
    tstress = .true.,
    tprnfor = .true.,
    wf_collect = .false.
    pseudo_dir = '/home/cwx6513/pp.La/',
    outdir='./cP8-Cr3Si-out'
 /
 &system
    ibrav =  0,
    nat =  8,
    ntyp = 2,
    ecutwfc = 40.0,
    ecutrho = 160.0

    occupations = 'smearing'
    smearing = 'gaussian'
    degauss = 0.1
 /
 &electrons
    diagonalization='cg',
    mixing_mode = 'plain',
    mixing_beta = 0.7,
    conv_thr =  1.0d-4
 /
 &ions
    ion_dynamics='bfgs'
    trust_radius_min = 1.0d3
 /
 &cell
    cell_dynamics='bfgs'
 /


ATOMIC_SPECIES
   Cr   51.9961000000  La.UPF
   Si   28.0855000000  Sm.UPF

ATOMIC_POSITIONS crystal
Cr      0.00000000000000      0.50000000000000      0.25000000000000
Cr      0.00000000000000      0.50000000000000      0.75000000000000
Cr      0.50000000000000      0.75000000000000      0.00000000000000
Cr      0.50000000000000      0.25000000000000      0.00000000000000
Cr      0.75000000000000      0.00000000000000      0.50000000000000
Cr      0.25000000000000      0.00000000000000      0.50000000000000
Si      0.50000000000000      0.50000000000000      0.50000000000000
Si      0.00000000000000      0.00000000000000      0.00000000000000

K_POINTS automatic
    5  6  7 0  0  0

CELL_PARAMETERS
     8.53457319552403      0.00000000000000      0.00000000000000
     0.00000000000000      8.53457319552403      0.00000000000000
     0.00000000000000      0.00000000000000      8.53457319552403



