 &control
    calculation = 'vc-relax',
    restart_mode = 'from_scratch',
    prefix = 'Prototype-La-Pm-La',
    tstress = .true.,
    tprnfor = .true.,
    pseudo_dir = '/home/cwx6513/pp.La/',
    outdir='./out'
 /
 &system
    ibrav =  0,
    nat =  2,
    ntyp = 2,
    ecutwfc = 100.0,
    ecutrho = 400.0

    occupations = 'smearing'
    smearing = 'gaussian'
    degauss = 0.1
 /
 &electrons
    diagonalization='cg',
    mixing_mode = 'plain',
    mixing_beta = 0.7,
    conv_thr =  1.0d-8
 /
 &ions
    ion_dynamics='bfgs'
    trust_radius_min = 1.0d-8
 /
 &cell
    cell_dynamics='bfgs'
 /


ATOMIC_SPECIES
   Pm   24.3050000000  Pm.UPF
   La   63.5460000000  La.UPF

ATOMIC_POSITIONS crystal
Pm      0.75000000000000      0.75000000000000      0.75000000000000
Pm      0.50000000000000      0.50000000000000      0.50000000000000
La      0.12500000000000      0.12500000000000      0.12500000000000
La      0.62500000000000      0.12500000000000      0.12500000000000
La      0.12500000000000      0.62500000000000      0.12500000000000
La      0.12500000000000      0.12500000000000      0.62500000000000

K_POINTS automatic
3  3  3   0 0 0

CELL_PARAMETERS
     9.37903830244557      0.00000000000000      0.00000000000000
     4.68951915122279      8.12248543298514      0.00000000000000
     4.68951915122279      2.70749514432838      7.65795270633699



