&SYSTEM
    ibrav = 0
      nat = 6
     ntyp = 2
/

CELL_PARAMETERS angstrom
    7.62556462000000 0.00000000000000 0.00000000000000
    6.17046381000000 6.55154932000000 0.00000000000000
    0.31404520000000 1.27411204000000 4.21169923000000

ATOMIC_SPECIES
    Ca 40.07800000
    Cl 35.45000000

ATOMIC_POSITIONS crystal
    Ca 0.27922520459200 0.33754403515000 0.70329230555300
    Ca 0.06397371634800 0.03457064257500 0.38706550164600
    Cl 0.57633315543400 0.24781149879000 0.22679624785700
    Cl 0.07411937457000 0.73324036233200 0.28563967775500
    Cl 0.32752267845200 0.98642545637500 0.88007834453500
    Cl 0.01379665431900 0.38765773807800 0.20869930617100
