&SYSTEM
    ibrav = 0
      nat = 6
     ntyp = 2
/

CELL_PARAMETERS angstrom
    10.64117122000000  0.00000000000000 0.00000000000000
     5.18056444000000  6.96234646000000 0.00000000000000
     3.36413924000000 -1.77613015000000 2.40289860000000

ATOMIC_SPECIES
    Ca 40.07800000
    Cl 35.45000000

ATOMIC_POSITIONS crystal
    Ca 0.81209230976400 0.77284628553400 0.21255623540700
    Ca 0.91521701262700 0.25662846459800 0.52749310147100
    Cl 0.66444801828800 0.55562426840300 0.39613006760100
    Cl 0.84762453043100 0.95505409393300 0.61843665677400
    Cl 0.33746152437900 0.99024733322100 0.36817876515500
    Cl 0.16409743394400 0.39861697699300 0.09985653380300
