&SYSTEM
    ibrav = 0
      nat = 6
     ntyp = 2
/

CELL_PARAMETERS angstrom
     7.93604419000000 0.00000000000000 0.00000000000000
     8.59762706000000 4.91040630000000 0.00000000000000
    -1.83541613000000 5.31211291000000 4.76769679000000

ATOMIC_SPECIES
    Ca 40.07800000
    Cl 35.45000000

ATOMIC_POSITIONS crystal
    Ca 0.30544794623000 0.61589015915200 0.24714813892300
    Ca 0.32808306446400 0.16236961265800 0.40473541824300
    Cl 0.44801553416100 0.83991116874600 0.28150141269100
    Cl 0.34858509180200 0.92525469014300 0.69738660561500
    Cl 0.49970993870800 0.23472601678800 0.16930116060900
    Cl 0.66079391317500 0.15484347586300 0.67567382341200
