&SYSTEM
    ibrav = 0
      nat = 6
     ntyp = 2
/

CELL_PARAMETERS angstrom
     4.61263168000000  0.00000000000000 0.00000000000000
    10.53990212000000 10.10281437000000 0.00000000000000
     1.93882505000000 -1.17611389000000 4.72301167000000

ATOMIC_SPECIES
    Ca 40.07800000
    Cl 35.45000000

ATOMIC_POSITIONS crystal
    Ca 0.79943634927200 0.12206548798700 0.56880971027600
    Ca 0.91293048407800 0.57151807212900 0.91524865165700
    Cl 0.86206847697500 0.17738813245400 0.03116406870500
    Cl 0.92995804138200 0.39565813008600 0.71891789214500
    Cl 0.93202972060000 0.63733764604200 0.38851706671500
    Cl 0.72431231831100 0.97862202060000 0.33778511384100
