&SYSTEM
    ibrav = 0
      nat = 6
     ntyp = 2
/

CELL_PARAMETERS angstrom
     4.61230848000000 0.00000000000000 0.00000000000000
     1.59922830000000 4.32516020000000 0.00000000000000
    -3.07881062000000 7.57171114000000 9.33790509000000

ATOMIC_SPECIES
    Ca 40.07800000
    Cl 35.45000000

ATOMIC_POSITIONS crystal
    Ca 0.08036824210700 0.33003227661500 0.21232103812600
    Ca 0.29687190765300 0.87006746724500 0.68129109410800
    Cl 0.17680434511400 0.56375772940000 0.44782398400600
    Cl 0.83437256729800 0.65324364740800 0.92465567565900
    Cl 0.45130010467300 0.70173402718700 0.21203943441800
    Cl 0.95191567303600 0.46499334768400 0.70019050879700
