&SYSTEM
    ibrav = 0
      nat = 6
     ntyp = 2
/

CELL_PARAMETERS angstrom
     8.43000611000000 0.00000000000000 0.00000000000000
    -2.15882531000000 6.16635284000000 0.00000000000000
     5.97193876000000 2.50170069000000 3.63302130000000

ATOMIC_SPECIES
    Ca 40.07800000
    Cl 35.45000000

ATOMIC_POSITIONS crystal
    Ca 0.12839982969100 0.31040294422100 0.21896560230700
    Ca 0.08531824071700 0.84978017487300 0.77971851976200
    Cl 0.55773679994900 0.83880855874300 0.91546650034700
    Cl 0.77391317957700 0.57967222363900 0.40117064004800
    Cl 0.96699478077800 0.18995426118300 0.00495756292400
    Cl 0.49971969997200 0.28671665157000 0.15217554460900
