&SYSTEM
    ibrav = 0
      nat = 6
     ntyp = 2
/

CELL_PARAMETERS angstrom
    9.65408688000000 0.00000000000000 0.00000000000000
    1.59251462000000 4.80755158000000 0.00000000000000
    4.46360355000000 4.15011890000000 3.65957705000000

ATOMIC_SPECIES
    Ca 40.07800000
    Cl 35.45000000

ATOMIC_POSITIONS crystal
    Ca 0.42063568734800 0.75514640432100 0.05865471897200
    Ca 0.86000452795700 0.05193630408300 0.01182906553800
    Cl 0.69158252719600 0.36239126470300 0.28945942200600
    Cl 0.11625142217400 0.81383803050400 0.50447039694500
    Cl 0.59028225360400 0.31521726560300 0.90583851503300
    Cl 0.20092466282200 0.89498201126800 0.87340762219700
