&SYSTEM
    ibrav = 0
      nat = 6
     ntyp = 2
/

CELL_PARAMETERS angstrom
     8.80297265000000  0.00000000000000 0.00000000000000
    -1.15956673000000  5.38960810000000 0.00000000000000
     0.93351582000000 -0.22786626000000 4.87740248000000

ATOMIC_SPECIES
    Ca 40.07800000
    Cl 35.45000000

ATOMIC_POSITIONS crystal
    Ca 0.52907493923600 0.42297465001400 0.45955485309800
    Ca 0.87957387795800 0.09182597200800 0.77209318118900
    Cl 0.49523267606900 0.91945714685400 0.56439155328200
    Cl 0.19868655864300 0.27600844517900 0.56099674294700
    Cl 0.69902270535700 0.61480665000600 0.88154150443600
    Cl 0.82928575429400 0.30240005662100 0.30887011653100
