&SYSTEM
    ibrav = 0
      nat = 6
     ntyp = 2
/

CELL_PARAMETERS angstrom
    8.51308106000000  0.00000000000000 0.00000000000000
    3.83485890000000  6.68866780000000 0.00000000000000
    1.47150935000000 -1.27066585000000 3.20252727000000

ATOMIC_SPECIES
    Ca 40.07800000
    Cl 35.45000000

ATOMIC_POSITIONS crystal
    Ca 0.92095847592700 0.65644609331000 0.34156956040100
    Ca 0.24425861635300 0.93213423930700 0.02842363981500
    Cl 0.21615655971600 0.67674934559600 0.50136089201600
    Cl 0.82336321073600 0.06972695663300 0.42939768430600
    Cl 0.06036909179200 0.32562103628700 0.64983191204400
    Cl 0.57376350242700 0.80349064949900 0.22690019771300
