&SYSTEM
    ibrav = 0
      nat = 6
     ntyp = 2
/

CELL_PARAMETERS angstrom
    5.44527569000000  0.00000000000000 0.00000000000000
    3.12159161000000  7.88864413000000 0.00000000000000
    1.02771071000000 -2.68676107000000 4.52743258000000

ATOMIC_SPECIES
    Ca 40.07800000
    Cl 35.45000000

ATOMIC_POSITIONS crystal
    Ca 0.07227736713900 0.45879238258600 0.41786617794000
    Ca 0.25454959368500 0.94102549030000 0.54865863600500
    Cl 0.48538867795300 0.58423951975300 0.54564845539000
    Cl 0.14857231701100 0.06390151523000 0.14611871999600
    Cl 0.81241268939800 0.84676282712600 0.52838934837500
    Cl 0.10212511504400 0.34261658262600 0.83943497805200
