&SYSTEM
    ibrav = 0
      nat = 6
     ntyp = 2
/

CELL_PARAMETERS angstrom
    9.06284595000000  0.00000000000000 0.00000000000000
    7.88162562000000 12.89829643000000 0.00000000000000
    2.86965616000000  3.34731787000000 1.94793650000000

ATOMIC_SPECIES
    Ca 40.07800000
    Cl 35.45000000

ATOMIC_POSITIONS crystal
    Ca 0.31978397665700 0.59386821306900 0.93686009794800
    Ca 0.81195559670200 0.35022956783600 0.70291011811900
    Cl 0.59594994027200 0.69738380518900 0.94499071110400
    Cl 0.11893614717000 0.62884036242600 0.55699402145800
    Cl 0.04054276122400 0.27967075490800 0.13349993369900
    Cl 0.58316399582900 0.29892604691100 0.57103526056400
