&SYSTEM
    ibrav = 0
      nat = 6
     ntyp = 2
/

CELL_PARAMETERS angstrom
    10.83179170000000 0.00000000000000 0.00000000000000
     1.77324755000000 5.16508129000000 0.00000000000000
     3.56634544000000 7.21190641000000 3.28712728000000

ATOMIC_SPECIES
    Ca 40.07800000
    Cl 35.45000000

ATOMIC_POSITIONS crystal
    Ca 0.45634758197200 0.34121749993000 0.97699671203300
    Ca 0.95466276229600 0.16519236225800 0.00120863922500
    Cl 0.92998647635000 0.91122003356900 0.84370255472800
    Cl 0.67353777991600 0.23273197263600 0.13087070307100
    Cl 0.17756089382200 0.91231063488000 0.31731602874000
    Cl 0.42332587304500 0.09609610943100 0.81533061420700
