&SYSTEM
    ibrav = 0
      nat = 6
     ntyp = 2
/

CELL_PARAMETERS angstrom
    13.09543409000000 0.00000000000000 0.00000000000000
    -1.97284906000000 5.06494046000000 0.00000000000000
     3.48162978000000 1.99367609000000 2.78063890000000

ATOMIC_SPECIES
    Ca 40.07800000
    Cl 35.45000000

ATOMIC_POSITIONS crystal
    Ca 0.41802720175400 0.03114491955300 0.95061386538500
    Ca 0.88708420999800 0.09415344026400 0.56706908887600
    Cl 0.10888332840000 0.01752160510800 0.47649772597400
    Cl 0.25601307885400 0.70332684345600 0.80503685815400
    Cl 0.71808901994000 0.38847632551300 0.94697968535300
    Cl 0.64128624427000 0.84790648763400 0.61652585223700
