&SYSTEM
    ibrav = 0
      nat = 6
     ntyp = 2
/

CELL_PARAMETERS angstrom
     6.85893062000000  0.00000000000000 0.00000000000000
    -2.72643168000000 16.50845095000000 0.00000000000000
     3.49331014000000  3.48705109000000 1.92904586000000

ATOMIC_SPECIES
    Ca 40.07800000
    Cl 35.45000000

ATOMIC_POSITIONS crystal
    Ca 0.43738660876800 0.04155298633500 0.91436747828800
    Ca 0.94828410306100 0.50396534338300 0.55439074803000
    Cl 0.24270780545900 0.62043473572400 0.60468385040300
    Cl 0.16501959577500 0.92467300871200 0.84668220778100
    Cl 0.16214534796000 0.38107647897200 0.44154285734600
    Cl 0.24404992324500 0.17750918895300 0.90878456098500
