&SYSTEM
    ibrav = 0
      nat = 6
     ntyp = 2
/

CELL_PARAMETERS angstrom
     6.43507344000000  0.00000000000000 0.00000000000000
     3.18267786000000  4.43223882000000 0.00000000000000
    -3.88711546000000 -0.35142802000000 7.96391819000000

ATOMIC_SPECIES
    Ca 40.07800000
    Cl 35.45000000

ATOMIC_POSITIONS crystal
    Ca 0.23780578620400 0.95754939598300 0.13353010582200
    Ca 0.45335663994100 0.49767900020000 0.58665798378700
    Cl 0.73987836794400 0.51563130865300 0.08874747860600
    Cl 0.41301619312100 0.98597185686800 0.50231620597200
    Cl 0.43103431953300 0.38970548452100 0.25198565396700
    Cl 0.14396476199300 0.91916349719200 0.78922271769700
