&SYSTEM
    ibrav = 0
      nat = 6
     ntyp = 2
/

CELL_PARAMETERS angstrom
    10.43350042000000 0.00000000000000 0.00000000000000
     3.80132451000000 2.36822838000000 0.00000000000000
    -0.06270788000000 6.98426586000000 6.85466023000000

ATOMIC_SPECIES
    Ca 40.07800000
    Cl 35.45000000

ATOMIC_POSITIONS crystal
    Ca 0.46477694778200 0.42808512789900 0.75354396016500
    Ca 0.50714929113000 0.22323260256200 0.30840870139900
    Cl 0.90232269570500 0.87130511752900 0.95742264136100
    Cl 0.52891567827500 0.94463110246700 0.08590905099200
    Cl 0.81445052352400 0.87092704625700 0.57696176990400
    Cl 0.19321931824200 0.67049403225100 0.50337454205100
