&SYSTEM
    ibrav = 0
      nat = 6
     ntyp = 2
/

CELL_PARAMETERS angstrom
    12.07922701000000  0.00000000000000 0.00000000000000
     5.05314554000000  2.35294557000000 0.00000000000000
     5.08512127000000 -2.69983822000000 6.88947580000000

ATOMIC_SPECIES
    Ca 40.07800000
    Cl 35.45000000

ATOMIC_POSITIONS crystal
    Ca 0.62251373107500 0.05797959826200 0.41883468209700
    Ca 0.34943769854200 0.46685060972400 0.99124797938000
    Cl 0.54401316033500 0.50378496850600 0.62744949079200
    Cl 0.28494071283700 0.90215192256400 0.18686498628800
    Cl 0.69590489158500 0.62907494890900 0.16000104931800
    Cl 0.98492007712800 0.08363088367200 0.72535627764500
