&SYSTEM
    ibrav = 0
      nat = 6
     ntyp = 2
/

CELL_PARAMETERS angstrom
     7.77981768000000 0.00000000000000  0.00000000000000
     3.82596796000000 2.49043019000000  0.00000000000000
    15.13838850000000 5.18864389000000 14.30572977000000

ATOMIC_SPECIES
    Ca 40.07800000
    Cl 35.45000000

ATOMIC_POSITIONS crystal
    Ca 0.57487631358500 0.86138446614800 0.84237644405100
    Ca 0.25130526121800 0.42436299488300 0.43559706141400
    Cl 0.39116874289400 0.91042205316900 0.75804283300500
    Cl 0.00129596782000 0.57285115165700 0.35659784258100
    Cl 0.89182518832700 0.63547768660500 0.91022560486600
    Cl 0.34342137551200 0.45085061457300 0.53619195955200
