&SYSTEM
    ibrav = 0
      nat = 6
     ntyp = 2
/

CELL_PARAMETERS angstrom
    7.05625114000000 0.00000000000000 0.00000000000000
    5.34026063000000 7.59278299000000 0.00000000000000
    5.09295544000000 3.59770230000000 3.51554230000000

ATOMIC_SPECIES
    Ca 40.07800000
    Cl 35.45000000

ATOMIC_POSITIONS crystal
    Ca 0.06147359027400 0.38407073960500 0.66093988247500
    Ca 0.66408778452500 0.92559908082200 0.84284764122400
    Cl 0.53374485355800 0.24923587639500 0.28406447920800
    Cl 0.02318471591500 0.81023820968800 0.00361082348100
    Cl 0.51721726228200 0.42211570698700 0.56015691621500
    Cl 0.09828924486200 0.90491309102000 0.30872034008100
