&SYSTEM
    ibrav = 0
      nat = 6
     ntyp = 2
/

CELL_PARAMETERS angstrom
    5.05154896000000  0.00000000000000 0.00000000000000
    7.72913370000000  8.69561487000000 0.00000000000000
    1.84675127000000 -2.11652753000000 4.62900418000000

ATOMIC_SPECIES
    Ca 40.07800000
    Cl 35.45000000

ATOMIC_POSITIONS crystal
    Ca 0.92287102562400 0.68698128280100 0.09450908152800
    Ca 0.53844913161500 0.19514063076200 0.46615938225900
    Cl 0.68643497669300 0.34693109453100 0.73153246710200
    Cl 0.95250693882300 0.61376570750400 0.57477939925000
    Cl 0.13367437552100 0.84074046060300 0.24204693732400
    Cl 0.43555852475000 0.13316353183900 0.01480314774100
