 &control
    calculation = 'vc-relax',
    restart_mode = 'from_scratch',
    prefix = 'Prototype-La-cF24-Cu2Mg',
    tstress = .true.,
    tprnfor = .true.,
    wf_collect = .false.
    pseudo_dir = '/home/jld5415/pp.La/',
    outdir='./out'
 /
 &system
    ibrav =  0,
    nat =  6,
    ntyp = 2,
    ecutwfc = 40.0,
    ecutrho = 160.0

    occupations = 'smearing'
    smearing = 'gaussian'
    degauss = 0.1
 /
 &electrons
    diagonalization='cg',
    mixing_mode = 'plain',
    mixing_beta = 0.7,
    conv_thr =  1.0d-4
 /
 &ions
    ion_dynamics='bfgs'
    trust_radius_min = 1.0d3
 /
 &cell
    cell_dynamics='bfgs'
 /


ATOMIC_SPECIES
   Mg   24.3050000000  Yb.UPF
   Cu   63.5460000000  Er.UPF

ATOMIC_POSITIONS crystal
Mg      0.75000000000000      0.75000000000000      0.75000000000000
Mg      0.50000000000000      0.50000000000000      0.50000000000000
Cu      0.12500000000000      0.12500000000000      0.12500000000000
Cu      0.62500000000000      0.12500000000000      0.12500000000000
Cu      0.12500000000000      0.62500000000000      0.12500000000000
Cu      0.12500000000000      0.12500000000000      0.62500000000000

K_POINTS automatic
    6  7  8 0  0  0

CELL_PARAMETERS
     9.37903830244557      0.00000000000000      0.00000000000000
     4.68951915122279      8.12248543298514      0.00000000000000
     4.68951915122279      2.70749514432838      7.65795270633699



