&SYSTEM
    ibrav = 0
      nat = 6
     ntyp = 2
/

CELL_PARAMETERS angstrom
    6.38000000000000 0.00000000000000 0.00000000000000
    0.00000000000000 6.38000000000000 0.00000000000000
    0.00000000000000 0.00000000000000 4.19000000000000

ATOMIC_SPECIES
    Ca 40.07800000
    Cl 35.45000000

ATOMIC_POSITIONS crystal
    Ca 0.52041729471400 0.32235818575700 0.39925287597000
    Ca 0.12615336585600 0.92803270730800 0.37028887812600
    Cl 0.40401814982700 0.63870529815600 0.91961800181300
    Cl 0.90737084054000 0.53946731017600 0.45731785165100
    Cl 0.24850212317500 0.13873570982400 0.86016890899000
    Cl 0.75266277158000 0.02787372530100 0.04590650815100
