&SYSTEM
    ibrav = 0
      nat = 6
     ntyp = 2
/

CELL_PARAMETERS angstrom
    6.38000000000000 0.00000000000000 0.00000000000000
    0.00000000000000 6.38000000000000 0.00000000000000
    0.00000000000000 0.00000000000000 4.19000000000000

ATOMIC_SPECIES
    Ca 40.07800000
    Cl 35.45000000

ATOMIC_POSITIONS crystal
    Ca 0.45043087998800 0.99842817008000 0.22398889512900
    Ca 0.07663421466700 0.45789339405900 0.23116393356900
    Cl 0.33469725228800 0.28219220657000 0.74206416242600
    Cl 0.66915376900300 0.61808217189200 0.33097130158300
    Cl 0.85879124282900 0.12066968756800 0.51187122950500
    Cl 0.21156162669400 0.76356721573900 0.75083788880000
