&SYSTEM
    ibrav = 0
      nat = 6
     ntyp = 2
/

CELL_PARAMETERS angstrom
    6.38000000000000 0.00000000000000 0.00000000000000
    0.00000000000000 6.38000000000000 0.00000000000000
    0.00000000000000 0.00000000000000 4.19000000000000

ATOMIC_SPECIES
    Ca 40.07800000
    Cl 35.45000000

ATOMIC_POSITIONS crystal
    Ca 0.13990677613000 0.10213894491000 0.08795215410600
    Ca 0.12702260657100 0.73113757061400 0.52517899317400
    Cl 0.33475829409600 0.49734080860500 0.04744140612900
    Cl 0.47420793527900 0.03772916955000 0.52470494820100
    Cl 0.92615136730600 0.33070732125200 0.57914175043000
    Cl 0.82630526370000 0.78701027092100 0.03243542994300
