&SYSTEM
    ibrav = 0
      nat = 6
     ntyp = 2
/

CELL_PARAMETERS angstrom
    6.38000000000000 0.00000000000000 0.00000000000000
    0.00000000000000 6.38000000000000 0.00000000000000
    0.00000000000000 0.00000000000000 4.19000000000000

ATOMIC_SPECIES
    Ca 40.07800000
    Cl 35.45000000

ATOMIC_POSITIONS crystal
    Ca 0.10504784921900 0.38213974710300 0.54848939739700
    Ca 0.62540562471400 0.50449884320500 0.52758374553500
    Cl 0.81954861005400 0.25848340688000 0.05222172945800
    Cl 0.92973651978300 0.83848837478800 0.52766431640400
    Cl 0.41643904817300 0.06859457530100 0.56389441326400
    Cl 0.31791655347500 0.61728183553200 0.06020107125300
