&SYSTEM
    ibrav = 0
      nat = 6
     ntyp = 2
/

CELL_PARAMETERS angstrom
    6.38000000000000 0.00000000000000 0.00000000000000
    0.00000000000000 6.38000000000000 0.00000000000000
    0.00000000000000 0.00000000000000 4.19000000000000

ATOMIC_SPECIES
    Ca 40.07800000
    Cl 35.45000000

ATOMIC_POSITIONS crystal
    Ca 0.18329546343500 0.06415510873500 0.21571409296900
    Ca 0.70425187575200 0.62729545652900 0.68624927058800
    Cl 0.44874936056800 0.43209085599500 0.14590764550900
    Cl 0.95575108306400 0.26625763871900 0.72466206674900
    Cl 0.13705124296000 0.75577362373100 0.71945657064900
    Cl 0.62359870326400 0.92749299447100 0.20197929547000
