&SYSTEM
    ibrav = 0
      nat = 6
     ntyp = 2
/

CELL_PARAMETERS angstrom
    6.38000000000000 0.00000000000000 0.00000000000000
    0.00000000000000 6.38000000000000 0.00000000000000
    0.00000000000000 0.00000000000000 4.19000000000000

ATOMIC_SPECIES
    Ca 40.07800000
    Cl 35.45000000

ATOMIC_POSITIONS crystal
    Ca 0.80504893248700 0.90604361998600 0.55966499349600
    Ca 0.36848823242000 0.31403977144200 0.97559399153300
    Cl 0.08461517501700 0.67434348314100 0.98554164171300
    Cl 0.58433369342000 0.52788486039500 0.46206695804500
    Cl 0.36023253865800 0.00023316951000 0.48730554729200
    Cl 0.88744852358900 0.18790301433700 0.05007565302800
