&SYSTEM
    ibrav = 0
      nat = 6
     ntyp = 2
/

CELL_PARAMETERS angstrom
    6.38000000000000 0.00000000000000 0.00000000000000
    0.00000000000000 6.38000000000000 0.00000000000000
    0.00000000000000 0.00000000000000 4.19000000000000

ATOMIC_SPECIES
    Ca 40.07800000
    Cl 35.45000000

ATOMIC_POSITIONS crystal
    Ca 0.40731393948300 0.99801892370600 0.61544378058600
    Ca 0.96416742460700 0.43272367088000 0.72333952144800
    Cl 0.79412829502200 0.13988681981600 0.27335114057100
    Cl 0.29545581281300 0.26010142738900 0.10525118700800
    Cl 0.61774770523600 0.62884355684900 0.42220782938800
    Cl 0.13694470399500 0.75994933247300 0.10085801998100
