&SYSTEM
    ibrav = 0
      nat = 6
     ntyp = 2
/

CELL_PARAMETERS angstrom
    6.38000000000000 0.00000000000000 0.00000000000000
    0.00000000000000 6.38000000000000 0.00000000000000
    0.00000000000000 0.00000000000000 4.19000000000000

ATOMIC_SPECIES
    Ca 40.07800000
    Cl 35.45000000

ATOMIC_POSITIONS crystal
    Ca 0.45555567593900 0.35011988848400 0.83019306997400
    Ca 0.98459716384500 0.78924209627900 0.32608327234000
    Cl 0.71670279554600 0.99800711264000 0.76028858996000
    Cl 0.20197699214500 0.19379190249900 0.33063532764100
    Cl 0.87784715391500 0.49528361768300 0.80726150785900
    Cl 0.43199726430000 0.68316865997400 0.27869189820300
