&SYSTEM
    ibrav = 0
      nat = 6
     ntyp = 2
/

CELL_PARAMETERS angstrom
    6.38000000000000 0.00000000000000 0.00000000000000
    0.00000000000000 6.38000000000000 0.00000000000000
    0.00000000000000 0.00000000000000 4.19000000000000

ATOMIC_SPECIES
    Ca 40.07800000
    Cl 35.45000000

ATOMIC_POSITIONS crystal
    Ca 0.94066170261900 0.72171305415400 0.75335036996000
    Ca 0.07419572036600 0.23730940460200 0.77158491630400
    Cl 0.40157047092500 0.93006787457700 0.72989038754700
    Cl 0.17853181976100 0.52122947484200 0.27237153797700
    Cl 0.86300830898200 0.96194476703700 0.23348194169600
    Cl 0.65722980164300 0.39138741672400 0.85952160085800
