&SYSTEM
    ibrav = 0
      nat = 6
     ntyp = 2
/

CELL_PARAMETERS angstrom
    6.38000000000000 0.00000000000000 0.00000000000000
    0.00000000000000 6.38000000000000 0.00000000000000
    0.00000000000000 0.00000000000000 4.19000000000000

ATOMIC_SPECIES
    Ca 40.07800000
    Cl 35.45000000

ATOMIC_POSITIONS crystal
    Ca 0.93215889464200 0.34897604970500 0.03051997775800
    Ca 0.44071053373200 0.92686689347500 0.92562977075200
    Cl 0.74344170650800 0.11446603193800 0.52937028779900
    Cl 0.57984572685700 0.59766375370500 0.31826059829200
    Cl 0.02338006677600 0.78938006404600 0.98975322220400
    Cl 0.24063327821400 0.17357643894200 0.45021545990700
