&SYSTEM
    ibrav = 0
      nat = 6
     ntyp = 2
/

CELL_PARAMETERS angstrom
    6.38000000000000 0.00000000000000 0.00000000000000
    0.00000000000000 6.38000000000000 0.00000000000000
    0.00000000000000 0.00000000000000 4.19000000000000

ATOMIC_SPECIES
    Ca 40.07800000
    Cl 35.45000000

ATOMIC_POSITIONS crystal
    Ca 0.70839291589800 0.22139872968900 0.56845322575000
    Ca 0.08859894117600 0.70515302872200 0.60538405812700
    Cl 0.47347257670100 0.55682193819200 0.31769695117200
    Cl 0.79832188444200 0.93340146710000 0.06346857172500
    Cl 0.29332995465100 0.10559332711400 0.70752886195400
    Cl 0.96239772480900 0.42527699255300 0.09456091335100
