&SYSTEM
    ibrav = 0
      nat = 6
     ntyp = 2
/

CELL_PARAMETERS angstrom
    6.38000000000000 0.00000000000000 0.00000000000000
    0.00000000000000 6.38000000000000 0.00000000000000
    0.00000000000000 0.00000000000000 4.19000000000000

ATOMIC_SPECIES
    Ca 40.07800000
    Cl 35.45000000

ATOMIC_POSITIONS crystal
    Ca 0.66812267340100 0.48032960395000 0.91871553704400
    Ca 0.04370589640200 0.10421549526800 0.13836789085600
    Cl 0.95075481168200 0.60491088645600 0.40876765282800
    Cl 0.80874407883000 0.08967612457500 0.63013989559200
    Cl 0.31007914453300 0.25683479625000 0.65021640597700
    Cl 0.40794693456400 0.81911529069200 0.16902201174600
