&SYSTEM
    ibrav = 0
      nat = 6
     ntyp = 2
/

CELL_PARAMETERS angstrom
    6.38000000000000 0.00000000000000 0.00000000000000
    0.00000000000000 6.38000000000000 0.00000000000000
    0.00000000000000 0.00000000000000 4.19000000000000

ATOMIC_SPECIES
    Ca 40.07800000
    Cl 35.45000000

ATOMIC_POSITIONS crystal
    Ca 0.41761835914700 0.55112523637000 0.23715836755300
    Ca 0.77222163984400 0.10927755641900 0.32123194489200
    Cl 0.61375785804900 0.81664653438300 0.76798429458700
    Cl 0.48950077315200 0.31725142927600 0.73677842687400
    Cl 0.01181150107600 0.43991852356000 0.01742096685600
    Cl 0.17427449279100 0.92181125383100 0.35465039186200
