&SYSTEM
    ibrav = 0
      nat = 6
     ntyp = 2
/

CELL_PARAMETERS angstrom
    6.38000000000000 0.00000000000000 0.00000000000000
    0.00000000000000 6.38000000000000 0.00000000000000
    0.00000000000000 0.00000000000000 4.19000000000000

ATOMIC_SPECIES
    Ca 40.07800000
    Cl 35.45000000

ATOMIC_POSITIONS crystal
    Ca 0.51197071889900 0.77089628300500 0.13191680629200
    Ca 0.58142419495600 0.18314516153500 0.63025287352300
    Cl 0.75111682000200 0.59205699583900 0.62917287439100
    Cl 0.84980947471600 0.05865248808300 0.13029408657400
    Cl 0.22547612346800 0.87772502656700 0.64218414612500
    Cl 0.31683438258000 0.36995567659300 0.09330854055600
