&SYSTEM
    ibrav = 0
      nat = 6
     ntyp = 2
/

CELL_PARAMETERS angstrom
    6.38000000000000 0.00000000000000 0.00000000000000
    0.00000000000000 6.38000000000000 0.00000000000000
    0.00000000000000 0.00000000000000 4.19000000000000

ATOMIC_SPECIES
    Ca 40.07800000
    Cl 35.45000000

ATOMIC_POSITIONS crystal
    Ca 0.23526923818900 0.98899650164900 0.31312377306100
    Ca 0.29443800344300 0.69232966316300 0.83813897318700
    Cl 0.08867136905000 0.43727357633400 0.28950860381000
    Cl 0.58576682167400 0.62692180604100 0.34330925076500
    Cl 0.93596325944900 0.96522012376700 0.80517137042600
    Cl 0.45829282265200 0.21305425190100 0.81415355550100
