&SYSTEM
    ibrav = 0
      nat = 6
     ntyp = 2
/

CELL_PARAMETERS angstrom
    6.38000000000000 0.00000000000000 0.00000000000000
    0.00000000000000 6.38000000000000 0.00000000000000
    0.00000000000000 0.00000000000000 4.19000000000000

ATOMIC_SPECIES
    Ca 40.07800000
    Cl 35.45000000

ATOMIC_POSITIONS crystal
    Ca 0.00631579588000 0.49549966495100 0.94798434356000
    Ca 0.58327299748400 0.51966519202800 0.17570816647700
    Cl 0.88661651003000 0.79365333606000 0.46006189861700
    Cl 0.68987479919300 0.23730936169200 0.66879253826500
    Cl 0.24246026833000 0.14252389082100 0.15792960937800
    Cl 0.37482315842100 0.68285219428700 0.69437230988400
