&SYSTEM
    ibrav = 0
      nat = 6
     ntyp = 2
/

CELL_PARAMETERS angstrom
    6.38000374000000 0.00000000000000 0.00000000000000
    0.00000000000000 6.38000000000000 0.00000000000000
    0.00000000000000 0.00000000000000 4.19000000000000

ATOMIC_SPECIES
    Ca 40.07800000
    Cl 35.45000000

ATOMIC_POSITIONS crystal
    Ca 0.03094184332700 0.57792725939600 0.45832057914400
    Ca 0.50553617049900 0.19720295627900 0.50666288197400
    Cl 0.26688972081500 0.29329175084700 0.00666656774600
    Cl 0.75980636955500 0.45001352030600 0.96403572558900
    Cl 0.91770389625000 0.00788166475600 0.52387446590100
    Cl 0.43860051059700 0.75247947727000 0.39395770184200
