&SYSTEM
    ibrav = 0
      nat = 6
     ntyp = 2
/

CELL_PARAMETERS angstrom
    6.38000000000000 0.00000000000000 0.00000000000000
    0.00000000000000 6.38000000000000 0.00000000000000
    0.00000000000000 0.00000000000000 4.19000000000000

ATOMIC_SPECIES
    Ca 40.07800000
    Cl 35.45000000

ATOMIC_POSITIONS crystal
    Ca 0.85206629273600 0.92267863036000 0.50035021525400
    Ca 0.33844636989000 0.81111040754600 0.49437373340300
    Cl 0.63593375315600 0.70793818189200 0.00656114719200
    Cl 0.53555008449400 0.23634004175600 0.53079457720000
    Cl 0.12846798867000 0.08053850187800 0.02495029781900
    Cl 0.02635354152900 0.48877661507500 0.54308416543900
