&SYSTEM
    ibrav = 0
      nat = 6
     ntyp = 2
/

CELL_PARAMETERS angstrom
    6.38000000000000 0.00000000000000 0.00000000000000
    0.00000000000000 6.38000000000000 0.00000000000000
    0.00000000000000 0.00000000000000 4.19000000000000

ATOMIC_SPECIES
    Ca 40.07800000
    Cl 35.45000000

ATOMIC_POSITIONS crystal
    Ca 0.95293683812400 0.08484097495800 0.59891263105400
    Ca 0.43634849080900 0.99538935755700 0.13235713181500
    Cl 0.82705601857600 0.78241013480600 0.14146644725300
    Cl 0.25231532501200 0.74031635768500 0.61480230000200
    Cl 0.12145104098900 0.34050111307800 0.11216156254800
    Cl 0.56004085638200 0.30665149733100 0.61548997597900
