&SYSTEM
    ibrav = 0
      nat = 6
     ntyp = 2
/

CELL_PARAMETERS angstrom
    6.38000000000000 0.00000000000000 0.00000000000000
    0.00000000000000 6.38000000000000 0.00000000000000
    0.00000000000000 0.00000000000000 4.19000000000000

ATOMIC_SPECIES
    Ca 40.07800000
    Cl 35.45000000

ATOMIC_POSITIONS crystal
    Ca 0.96224770900400 0.69689724591300 0.79632192318700
    Ca 0.05810383970900 0.19842147617800 0.78948006454700
    Cl 0.62765146274600 0.99934362508800 0.76620763312500
    Cl 0.84955444635200 0.41409783494600 0.28446342262600
    Cl 0.14204595351300 0.94228850011400 0.28350563294300
    Cl 0.35017725067200 0.48629388214400 0.53467729688400
