 &control
    calculation = 'vc-relax',
    restart_mode = 'from_scratch',
    prefix = 'Prototype-La-La-Dy',
    tstress = .true.,
    tprnfor = .true.,
    pseudo_dir = '/home/cwx6513/pp.La/',
    outdir='./out'
 /
 &system
    ibrav =  0,
    nat =  2,
    ntyp = 2,
    ecutwfc = 100.0,
    ecutrho = 400.0

    occupations = 'smearing'
    smearing = 'gaussian'
    degauss = 0.1
 /
 &electrons
    diagonalization='cg',
    mixing_mode = 'plain',
    mixing_beta = 0.7,
    conv_thr =  1.0d-8
 /
 &ions
    ion_dynamics='bfgs'
    trust_radius_min = 1.0d-8
 /
 &cell
    cell_dynamics='bfgs'
 /


ATOMIC_SPECIES
   La   51.9961000000  La.UPF
   Dy   28.0855000000  Dy.UPF

ATOMIC_POSITIONS crystal
La      0.00000000000000      0.50000000000000      0.25000000000000
La      0.00000000000000      0.50000000000000      0.75000000000000
La      0.50000000000000      0.75000000000000      0.00000000000000
La      0.50000000000000      0.25000000000000      0.00000000000000
La      0.75000000000000      0.00000000000000      0.50000000000000
La      0.25000000000000      0.00000000000000      0.50000000000000
Dy      0.50000000000000      0.50000000000000      0.50000000000000
Dy      0.00000000000000      0.00000000000000      0.00000000000000

K_POINTS automatic
3  3  3   0 0 0

CELL_PARAMETERS
     8.53457319552403      0.00000000000000      0.00000000000000
     0.00000000000000      8.53457319552403      0.00000000000000
     0.00000000000000      0.00000000000000      8.53457319552403



