 &control
    calculation = 'vc-relax',
    restart_mode = 'from_scratch',
    prefix = 'Element-Tb.q',
    tstress = .true.,
    tprnfor = .true.,
    pseudo_dir = '/home/cwx6513/pp.La/',
    outdir='./out'
 /
 &system
    ibrav =  0,
    nat =  3,
    ntyp = 1,
    ecutwfc = 80.0,
    ecutrho = 320.0

    occupations = 'smearing'
    smearing = 'gaussian'
    degauss = 0.1
 /
 &electrons
    diagonalization='cg',
    mixing_mode = 'plain',
    mixing_beta = 0.7,
    conv_thr =  1.0d-6
 /
 &ions
    ion_dynamics='bfgs'
    bfgs_ndim = 3
    trust_radius_min = 1.0d-6
 /
 &cell
    cell_dynamics='bfgs'
 /


ATOMIC_SPECIES
   Tb  158.9250000000  Tb.UPF

ATOMIC_POSITIONS crystal
Tb      0.00000000000000      0.00000000000000      0.00000000000000
Tb      0.22213400000000      0.22213400000000      0.22213400000000
Tb      0.77786600000000      0.77786600000000      0.77786600000000

K_POINTS automatic
    12  13  14 0  0  0

CELL_PARAMETERS
    16.75084407846895      0.00000000000000      0.00000000000000
    15.37606732245510      6.64585066312108      0.00000000000000
    15.37606732245510      3.18073050770120      5.83526215982501



