ATOMIC_SPECIES
   Ce  140.1160000000  Ce.pw86pbe-n-kjpaw_psl.1.0.0.UPF

ATOMIC_POSITIONS crystal
Ce      0.00000000000000      0.00000000000000      0.00000000000000

K_POINTS automatic
4  4  4   0 0 0

CELL_PARAMETERS
     6.30762606763996      0.00000000000000      0.00000000000000
     3.15381303381998      5.46256441214914      0.00000000000000
     3.15381303381998      1.82085480404972      5.15015511799862



