ATOMIC_SPECIES
   Dy  162.5000000000  Dy.pw86pbe-n-kjpaw_psl.1.0.0.UPF

ATOMIC_POSITIONS crystal
Dy      0.00000000000000      0.00000000000000      0.00000000000000
Dy      0.22205100000000      0.22205100000000      0.22205100000000
Dy      0.77794900000000      0.77794900000000      0.77794900000000

K_POINTS automatic
2  2  2   0 0 0

CELL_PARAMETERS
    16.65877720749524      0.00000000000000      0.00000000000000
    15.29094716080414      6.61073316466933      0.00000000000000
    15.29094716080414      3.16385738887408      5.80446374761060



