ATOMIC_SPECIES
   Er  167.2590000000  Er.pw86pbe-n-kjpaw_psl.1.0.0.UPF

ATOMIC_POSITIONS crystal
Er      0.33333300000000      0.66666700000000      0.25000000000000
Er      0.66666700000000      0.33333300000000      0.75000000000000

K_POINTS automatic
4  4  3   0 0 0

CELL_PARAMETERS
     6.77902391859109      0.00000000000000      0.00000000000000
    -3.38951195929554      5.87080692636221      0.00000000000000
     0.00000000000000      0.00000000000000     10.47982295072489



