ATOMIC_SPECIES
   Eu  151.9640000000  Eu.pw86pbe-n-kjpaw_psl.1.0.0.UPF

ATOMIC_POSITIONS crystal
Eu      0.33333300000000      0.66666700000000      0.25000000000000
Eu      0.66666700000000      0.33333300000000      0.75000000000000

K_POINTS automatic
4  4  2   0 0 0

CELL_PARAMETERS
     7.65463088056596      0.00000000000000      0.00000000000000
    -3.82731544028298      6.62910479916297      0.00000000000000
     0.00000000000000      0.00000000000000     12.30927198976591



