ATOMIC_SPECIES
   Gd  157.2500000000  Gd.pw86pbe-n-kjpaw_psl.1.0.0.UPF

ATOMIC_POSITIONS crystal
Gd      0.33333300000000      0.66666700000000      0.75000000000000
Gd      0.66666700000000      0.33333300000000      0.25000000000000

K_POINTS automatic
4  4  2   0 0 0

CELL_PARAMETERS
     6.87725815643671      0.00000000000000      0.00000000000000
    -3.43862907821835      5.95588027185793      0.00000000000000
     0.00000000000000      0.00000000000000     10.98298235461738



