ATOMIC_SPECIES
   Ho  164.9300000000  Ho.pw86pbe-n-kjpaw_psl.1.0.0.UPF

ATOMIC_POSITIONS crystal
Ho      0.33333300000000      0.66666700000000      0.75000000000000
Ho      0.66666700000000      0.33333300000000      0.25000000000000

K_POINTS automatic
4  4  3   0 0 0

CELL_PARAMETERS
     6.81955533142859      0.00000000000000      0.00000000000000
    -3.40977766571430      5.90590815953077      0.00000000000000
     0.00000000000000      0.00000000000000     10.54000059886026



