ATOMIC_SPECIES
   La  138.9050000000  La.pw86pbe-n-kjpaw_psl.1.0.0.UPF

ATOMIC_POSITIONS crystal
La      0.00000000000000      0.00000000000000      0.00000000000000
La      0.00000000000000      0.00000000000000      0.50000000000000
La      0.66666700000000      0.33333300000000      0.75000000000000
La      0.33333300000000      0.66666700000000      0.25000000000000

K_POINTS automatic
4  4  1   0 0 0

CELL_PARAMETERS
     7.12651817232190      0.00000000000000      0.00000000000000
    -3.56325908616095      6.17174577776222      0.00000000000000
     0.00000000000000      0.00000000000000     22.79941641671330



