ATOMIC_SPECIES
   Nd  144.2400000000  Nd.pw86pbe-n-kjpaw_psl.1.0.0.UPF

ATOMIC_POSITIONS crystal
Nd      0.00000000000000      0.00000000000000      0.00000000000000
Nd      0.00000000000000      0.00000000000000      0.50000000000000
Nd      0.33333300000000      0.66666700000000      0.25000000000000
Nd      0.66666700000000      0.33333300000000      0.75000000000000

K_POINTS automatic
4  4  1   0 0 0

CELL_PARAMETERS
     7.00536546831838      0.00000000000000      0.00000000000000
    -3.50268273415919      6.06682445835799      0.00000000000000
     0.00000000000000      0.00000000000000     22.50827889827755



