ATOMIC_SPECIES
   Pm  145.0000000000  Pm.pw86pbe-n-kjpaw_psl.1.0.0.UPF

ATOMIC_POSITIONS crystal
Pm      0.00000000000000      0.00000000000000      0.00000000000000
Pm      0.66666700000000      0.33333300000000      0.75000000000000
Pm      0.00000000000000      0.00000000000000      0.50000000000000
Pm      0.33333300000000      0.66666700000000      0.25000000000000

K_POINTS automatic
4  4  1   0 0 0

CELL_PARAMETERS
     6.94516123173644      0.00000000000000      0.00000000000000
    -3.47258061586822      6.01468606006258      0.00000000000000
     0.00000000000000      0.00000000000000     22.34740934788251



