ATOMIC_SPECIES
   Pr  140.9080000000  Pr.pw86pbe-n-kjpaw_psl.1.0.0.UPF

ATOMIC_POSITIONS crystal
Pr      0.00000000000000      0.00000000000000      0.00000000000000
Pr      0.00000000000000      0.00000000000000      0.50000000000000
Pr      0.33333300000000      0.66666700000000      0.25000000000000
Pr      0.66666700000000      0.33333300000000      0.75000000000000

K_POINTS automatic
4  4  1   0 0 0

CELL_PARAMETERS
     7.07322356813634      0.00000000000000      0.00000000000000
    -3.53661178406817      6.12559129665288      0.00000000000000
     0.00000000000000      0.00000000000000     22.71972067560857



