ATOMIC_SPECIES
   Sm  150.3600000000  Sm.pw86pbe-n-kjpaw_psl.1.0.0.UPF

ATOMIC_POSITIONS crystal
Sm      0.00000000000000      0.00000000000000      0.00000000000000
Sm      0.00000000000000      0.00000000000000      0.50000000000000
Sm      0.33333300000000      0.66666700000000      0.25000000000000
Sm      0.66666700000000      0.33333300000000      0.75000000000000

K_POINTS automatic
4  4  1   0 0 0

CELL_PARAMETERS
     6.89779218506789      0.00000000000000      0.00000000000000
    -3.44889609253394      5.97366326229457      0.00000000000000
     0.00000000000000      0.00000000000000     22.19774821666654



