ATOMIC_SPECIES
   Tb  158.9250000000  Tb.pw86pbe-n-kjpaw_psl.1.0.0.UPF

ATOMIC_POSITIONS crystal
Tb      0.00000000000000      0.00000000000000      0.00000000000000
Tb      0.22213400000000      0.22213400000000      0.22213400000000
Tb      0.77786600000000      0.77786600000000      0.77786600000000

K_POINTS automatic
2  2  2   0 0 0

CELL_PARAMETERS
    16.75084407846895      0.00000000000000      0.00000000000000
    15.37606732245510      6.64585066312108      0.00000000000000
    15.37606732245510      3.18073050770120      5.83526215982501



