ATOMIC_SPECIES
   Tm  168.9340000000  Tm.pw86pbe-n-kjpaw_psl.1.0.0.UPF

ATOMIC_POSITIONS crystal
Tm      0.33333300000000      0.66666700000000      0.75000000000000
Tm      0.66666700000000      0.33333300000000      0.25000000000000

K_POINTS automatic
4  4  3   0 0 0

CELL_PARAMETERS
     6.73242366920180      0.00000000000000      0.00000000000000
    -3.36621183460090      5.83044992656840      0.00000000000000
     0.00000000000000      0.00000000000000     10.41835267322853



