ATOMIC_SPECIES
   Yb  173.0400000000  Yb.pw86pbe-n-kjpaw_psl.1.0.0.UPF

ATOMIC_POSITIONS crystal
Yb      0.00000000000000      0.00000000000000      0.00000000000000

K_POINTS automatic
4  4  4   0 0 0

CELL_PARAMETERS
     7.28149578342768      0.00000000000000      0.00000000000000
     3.64074789171384      6.30596032599764      0.00000000000000
     3.64074789171384      2.10198677533255      5.94531641120835



