 &control
    calculation = 'vc-relax',
    restart_mode = 'from_scratch',
    prefix = 'Element-Er.q',
    tstress = .true.,
    tprnfor = .true.,
    wf_collect = .false.
    pseudo_dir = '/home/cwx6513/pp.La/',
    outdir='./out'
 /
 &system
    ibrav =  0,
    nat =  2,
    ntyp = 1,
    ecutwfc = 60.0,
    ecutrho = 240.0

    occupations = 'smearing'
    smearing = 'gaussian'
    degauss = 0.1
 /
 &electrons
    diagonalization='cg',
    mixing_mode = 'plain',
    mixing_beta = 0.7,
    conv_thr =  1.0d-6
 /
 &ions
    ion_dynamics='bfgs'
    trust_radius_min = 1.0d-2
 /
 &cell
    cell_dynamics='bfgs'
    cell_factor=4.0
 /


ATOMIC_SPECIES
   Er  167.2590000000  Er.UPF

ATOMIC_POSITIONS crystal
Er      0.33333300000000      0.66666700000000      0.25000000000000
Er      0.66666700000000      0.33333300000000      0.75000000000000

K_POINTS automatic
    5  6  7 0  0  0

CELL_PARAMETERS
     6.77902391859109      0.00000000000000      0.00000000000000
    -3.38951195929554      5.87080692636221      0.00000000000000
     0.00000000000000      0.00000000000000     10.47982295072489



