 &control
    calculation = 'vc-relax',
    restart_mode = 'from_scratch',
    prefix = 'Element-Tm.q',
    tstress = .true.,
    tprnfor = .true.,
    wf_collect = .false.
    pseudo_dir = '/home/cwx6513/pp.La/',
    outdir='./out'
 /
 &system
    ibrav =  0,
    nat =  2,
    ntyp = 1,
    ecutwfc = 60.0,
    ecutrho = 240.0

    occupations = 'smearing'
    smearing = 'gaussian'
    degauss = 0.1
 /
 &electrons
    diagonalization='cg',
    mixing_mode = 'plain',
    mixing_beta = 0.7,
    conv_thr =  1.0d-6
 /
 &ions
    ion_dynamics='bfgs'
    trust_radius_min = 1.0d-2
 /
 &cell
    cell_dynamics='bfgs'
    cell_factor=4.0
 /


ATOMIC_SPECIES
   Tm  168.9340000000  Tm.UPF

ATOMIC_POSITIONS crystal
Tm      0.33333300000000      0.66666700000000      0.75000000000000
Tm      0.66666700000000      0.33333300000000      0.25000000000000

K_POINTS automatic
    5  6  7 0  0  0

CELL_PARAMETERS
     6.73242366920180      0.00000000000000      0.00000000000000
    -3.36621183460090      5.83044992656840      0.00000000000000
     0.00000000000000      0.00000000000000     10.41835267322853



