 &control
    calculation = 'vc-relax',
    restart_mode = 'from_scratch',
    prefix = 'Prototype-La-cF8-NaCl',
    tstress = .true.,
    tprnfor = .true.,
    wf_collect = .false.
    pseudo_dir = '/home/jld5415/pp.La/',
    outdir='./out'
 /
 &system
    ibrav =  0,
    nat =  2,
    ntyp = 2,
    ecutwfc = 40.0,
    ecutrho = 160.0

    occupations = 'smearing'
    smearing = 'gaussian'
    degauss = 0.1
 /
 &electrons
    diagonalization='cg',
    mixing_mode = 'plain',
    mixing_beta = 0.7,
    conv_thr =  1.0d-4
 /
 &ions
    ion_dynamics='bfgs'
    trust_radius_min = 1.0d3
 /
 &cell
    cell_dynamics='bfgs'
 /


ATOMIC_SPECIES
   Na   22.9897000000  Yb.UPF
   Cl   35.4530000000  Pm.UPF

ATOMIC_POSITIONS crystal
Na      0.00000000000000      0.00000000000000      0.00000000000000
Cl      0.50000000000000      0.50000000000000      0.50000000000000

K_POINTS automatic
    9  10  11 0  0  0

CELL_PARAMETERS
     7.60545812810604      0.00000000000000      0.00000000000000
     3.80272906405302      6.58651994635868      0.00000000000000
     3.80272906405302      2.19550664878623      6.20983055798757



