 &control
    calculation = 'vc-relax',
    restart_mode = 'from_scratch',
    prefix = 'Element-Yb.q',
    tstress = .true.,
    tprnfor = .true.,
    pseudo_dir = '/home/cwx6513/pp.La/',
    outdir='./out'
 /
 &system
    ibrav =  0,
    nat =  1,
    ntyp = 1,
    ecutwfc = 80.0,
    ecutrho = 320.0

    occupations = 'smearing'
    smearing = 'gaussian'
    degauss = 0.1
 /
 &electrons
    diagonalization='cg',
    mixing_mode = 'plain',
    mixing_beta = 0.7,
    conv_thr =  1.0d-6
 /
 &ions
    ion_dynamics='bfgs'
    bfgs_ndim = 3
    trust_radius_min = 1.0d-6
 /
 &cell
    cell_dynamics='bfgs'
 /


ATOMIC_SPECIES
   Yb  173.0400000000  Yb.UPF

ATOMIC_POSITIONS crystal
Yb      0.00000000000000      0.00000000000000      0.00000000000000

K_POINTS automatic
    19  20  21 0  0  0

CELL_PARAMETERS
     7.28149578342768      0.00000000000000      0.00000000000000
     3.64074789171384      6.30596032599764      0.00000000000000
     3.64074789171384      2.10198677533255      5.94531641120835



