 &control
    calculation = 'vc-relax',
    restart_mode = 'from_scratch',
    prefix = 'Element-Pr.q',
    tstress = .true.,
    tprnfor = .true.,
    wf_collect = .false.
    pseudo_dir = '/home/cwx6513/pp.La/',
    outdir='./out'
 /
 &system
    ibrav =  0,
    nat =  4,
    ntyp = 1,
    ecutwfc = 40.0,
    ecutrho = 160.0

    occupations = 'smearing'
    smearing = 'gaussian'
    degauss = 0.1
 /
 &electrons
    diagonalization='cg',
    mixing_mode = 'plain',
    mixing_beta = 0.7,
    conv_thr =  1.0d-4
 /
 &ions
    ion_dynamics='bfgs'
    trust_radius_min = 1.0d3
 /
 &cell
    cell_dynamics='bfgs'
 /


ATOMIC_SPECIES
   Pr  140.9080000000  Pr.UPF

ATOMIC_POSITIONS crystal
Pr      0.00000000000000      0.00000000000000      0.00000000000000
Pr      0.00000000000000      0.00000000000000      0.50000000000000
Pr      0.33333300000000      0.66666700000000      0.25000000000000
Pr      0.66666700000000      0.33333300000000      0.75000000000000

K_POINTS automatic
    2  3  4 0  0  0

CELL_PARAMETERS
     7.07322356813634      0.00000000000000      0.00000000000000
    -3.53661178406817      6.12559129665288      0.00000000000000
     0.00000000000000      0.00000000000000     22.71972067560857



