ATOMIC_SPECIES
   Cu   63.5460000000  Cu.pw86pbe-n-kjpaw_psl.1.0.0.UPF
   Au  196.9660000000  Au.pw86pbe-n-kjpaw_psl.1.0.0.UPF

ATOMIC_POSITIONS crystal
Cu      0.00000000000000      0.50000000000000      0.50000000000000
Cu      0.50000000000000      0.50000000000000      0.00000000000000
Cu      0.50000000000000      0.00000000000000      0.50000000000000
Au      0.00000000000000      0.00000000000000      0.00000000000000

K_POINTS automatic
4  4  4   0 0 0

CELL_PARAMETERS
     7.13166486031942      0.00000000000000      0.00000000000000
     0.00000000000000      7.13166486031942      0.00000000000000
     0.00000000000000      0.00000000000000      7.13166486031942



