ATOMIC_SPECIES
   Ca   40.0780000000  Ca.pw86pbe-n-kjpaw_psl.1.0.0.UPF
   Cu   63.5460000000  Cu.pw86pbe-n-kjpaw_psl.1.0.0.UPF

ATOMIC_POSITIONS crystal
Ca      0.00000000000000      0.00000000000000      0.00000000000000
Cu      0.33333300000000      0.66666700000000      0.00000000000000
Cu      0.66666700000000      0.33333300000000      0.00000000000000
Cu      0.50000000000000      0.00000000000000      0.50000000000000
Cu      0.50000000000000      0.50000000000000      0.50000000000000
Cu      0.00000000000000      0.50000000000000      0.50000000000000

K_POINTS automatic
3  3  4   0 0 0

CELL_PARAMETERS
     9.64829492774938      0.00000000000000      0.00000000000000
    -4.82414746387469      8.35566851063551      0.00000000000000
     0.00000000000000      0.00000000000000      7.60833340309635



