ATOMIC_SPECIES
    K   39.0983000000  K.pw86pbe-n-kjpaw_psl.1.0.0.UPF
   Hg  200.5900000000  Hg.pw86pbe-n-kjpaw_psl.1.0.0.UPF

ATOMIC_POSITIONS crystal
 K      0.20086200000000      0.95086200000000      0.75000000000000
 K      0.79913800000000      0.04913800000000      0.25000000000000
Hg      0.39110700000000      0.33699000000000      0.55411700000000
Hg      0.60889300000000      0.66301000000000      0.44588300000000
Hg      0.78287400000000      0.33699000000000      0.94588300000000
Hg      0.21712600000000      0.66301000000000      0.05411700000000

K_POINTS automatic
2  2  2   0 0 0

CELL_PARAMETERS
    12.85322937126304      0.00000000000000      0.00000000000000
    -0.47008766754743     12.84463011748951      0.00000000000000
    -3.43030788016959     -9.08436996689738      8.42096879355802



