 &control
    calculation = 'vc-relax',
    restart_mode = 'from_scratch',
    prefix = 'Prototype-La-Sm-Ce',
    tstress = .true.,
    tprnfor = .true.,
    pseudo_dir = '/home/cwx6513/pp.La/',
    outdir='./out'
 /
 &system
    ibrav =  0,
    nat =  2,
    ntyp = 2,
    ecutwfc = 100.0,
    ecutrho = 400.0

    occupations = 'smearing'
    smearing = 'gaussian'
    degauss = 0.1
 /
 &electrons
    diagonalization='cg',
    mixing_mode = 'plain',
    mixing_beta = 0.7,
    conv_thr =  1.0d-8
 /
 &ions
    ion_dynamics='bfgs'
    trust_radius_min = 1.0d-8
 /
 &cell
    cell_dynamics='bfgs'
 /


ATOMIC_SPECIES
   Sm   24.3050000000  Sm.UPF
   Ce  112.4110000000  Ce.UPF

ATOMIC_POSITIONS crystal
Sm      0.66385800000000      0.83192900000000      0.25000000000000
Sm      0.83192900000000      0.16807100000000      0.75000000000000
Sm      0.33614200000000      0.16807100000000      0.75000000000000
Sm      0.16807100000000      0.83192900000000      0.25000000000000
Sm      0.16807100000000      0.33614200000000      0.25000000000000
Sm      0.83192900000000      0.66385800000000      0.75000000000000
Ce      0.66666700000000      0.33333300000000      0.25000000000000
Ce      0.33333300000000      0.66666700000000      0.75000000000000

K_POINTS automatic
2  2  3   0 0 0

CELL_PARAMETERS
    12.01680126954927      0.00000000000000      0.00000000000000
    -6.00840063477463     10.40685517165877      0.00000000000000
     0.00000000000000      0.00000000000000      9.49439268419205



