ATOMIC_SPECIES
   Mg   24.3050000000  Mg.pw86pbe-n-kjpaw_psl.1.0.0.UPF
   Cu   63.5460000000  Cu.pw86pbe-n-kjpaw_psl.1.0.0.UPF

ATOMIC_POSITIONS crystal
Mg      0.75000000000000      0.75000000000000      0.75000000000000
Mg      0.50000000000000      0.50000000000000      0.50000000000000
Cu      0.12500000000000      0.12500000000000      0.12500000000000
Cu      0.62500000000000      0.12500000000000      0.12500000000000
Cu      0.12500000000000      0.62500000000000      0.12500000000000
Cu      0.12500000000000      0.12500000000000      0.62500000000000

K_POINTS automatic
3  3  3   0 0 0

CELL_PARAMETERS
     9.37903830244557      0.00000000000000      0.00000000000000
     4.68951915122279      8.12248543298514      0.00000000000000
     4.68951915122279      2.70749514432838      7.65795270633699



