ATOMIC_SPECIES
   Cr   51.9961000000  Cr.pw86pbe-n-kjpaw_psl.1.0.0.UPF
   Si   28.0855000000  Si.pw86pbe-n-kjpaw_psl.1.0.0.UPF

ATOMIC_POSITIONS crystal
Cr      0.00000000000000      0.50000000000000      0.25000000000000
Cr      0.00000000000000      0.50000000000000      0.75000000000000
Cr      0.50000000000000      0.75000000000000      0.00000000000000
Cr      0.50000000000000      0.25000000000000      0.00000000000000
Cr      0.75000000000000      0.00000000000000      0.50000000000000
Cr      0.25000000000000      0.00000000000000      0.50000000000000
Si      0.50000000000000      0.50000000000000      0.50000000000000
Si      0.00000000000000      0.00000000000000      0.00000000000000

K_POINTS automatic
3  3  3   0 0 0

CELL_PARAMETERS
     8.53457319552403      0.00000000000000      0.00000000000000
     0.00000000000000      8.53457319552403      0.00000000000000
     0.00000000000000      0.00000000000000      8.53457319552403



