ATOMIC_SPECIES
   Mg   24.3050000000  Mg.pw86pbe-n-kjpaw_psl.1.0.0.UPF
   Cd  112.4110000000  Cd.pw86pbe-n-kjpaw_psl.1.0.0.UPF

ATOMIC_POSITIONS crystal
Mg      0.66385800000000      0.83192900000000      0.25000000000000
Mg      0.83192900000000      0.16807100000000      0.75000000000000
Mg      0.33614200000000      0.16807100000000      0.75000000000000
Mg      0.16807100000000      0.83192900000000      0.25000000000000
Mg      0.16807100000000      0.33614200000000      0.25000000000000
Mg      0.83192900000000      0.66385800000000      0.75000000000000
Cd      0.66666700000000      0.33333300000000      0.25000000000000
Cd      0.33333300000000      0.66666700000000      0.75000000000000

K_POINTS automatic
2  2  3   0 0 0

CELL_PARAMETERS
    12.01680126954927      0.00000000000000      0.00000000000000
    -6.00840063477463     10.40685517165877      0.00000000000000
     0.00000000000000      0.00000000000000      9.49439268419205



