ATOMIC_SPECIES
   Co   58.9332000000  Co.pw86pbe-n-kjpaw_psl.1.0.0.UPF
   Si   28.0855000000  Si.pw86pbe-n-kjpaw_psl.1.0.0.UPF

ATOMIC_POSITIONS crystal
Co      0.75000000000000      0.82640100000000      0.43573600000000
Co      0.25000000000000      0.17359900000000      0.56426400000000
Co      0.75000000000000      0.32640100000000      0.06426400000000
Co      0.25000000000000      0.67359900000000      0.93573600000000
Co      0.25000000000000      0.53708600000000      0.28234500000000
Co      0.75000000000000      0.46291400000000      0.71765500000000
Co      0.25000000000000      0.03708600000000      0.21765500000000
Co      0.75000000000000      0.96291400000000      0.78234500000000
Si      0.25000000000000      0.20285400000000      0.89360000000000
Si      0.75000000000000      0.79714600000000      0.10640000000000
Si      0.25000000000000      0.70285400000000      0.60640000000000
Si      0.75000000000000      0.29714600000000      0.39360000000000

K_POINTS automatic
4  3  2   0 0 0

CELL_PARAMETERS
     7.01510507896987      0.00000000000000      0.00000000000000
     0.00000000000000      9.23162140997514      0.00000000000000
     0.00000000000000      0.00000000000000     13.31481257053827



