ATOMIC_SPECIES
   Fe   55.8450000000  Fe.pw86pbe-n-kjpaw_psl.1.0.0.UPF
    C   12.0107000000  C.pw86pbe-n-kjpaw_psl.1.0.0.UPF

ATOMIC_POSITIONS crystal
Fe      0.34729400000000      0.16863600000000      0.92247800000000
Fe      0.15270600000000      0.66863600000000      0.57752200000000
Fe      0.84729400000000      0.33136400000000      0.42247800000000
Fe      0.33966400000000      0.45020900000000      0.25000000000000
Fe      0.15270600000000      0.66863600000000      0.92247800000000
Fe      0.34729400000000      0.16863600000000      0.57752200000000
Fe      0.16033600000000      0.95020900000000      0.25000000000000
Fe      0.65270600000000      0.83136400000000      0.42247800000000
Fe      0.84729400000000      0.33136400000000      0.07752200000000
Fe      0.66033600000000      0.54979100000000      0.75000000000000
Fe      0.65270600000000      0.83136400000000      0.07752200000000
Fe      0.83966400000000      0.04979100000000      0.75000000000000
 C      0.00000000000000      0.00000000000000      0.00000000000000
 C      0.50000000000000      0.50000000000000      0.00000000000000
 C      0.50000000000000      0.50000000000000      0.50000000000000
 C      0.00000000000000      0.00000000000000      0.50000000000000

K_POINTS automatic
3  3  2   0 0 0

CELL_PARAMETERS
     8.80076498740998      0.00000000000000      0.00000000000000
     0.00000000000000      9.53801510315425      0.00000000000000
     0.00000000000000      0.00000000000000     13.30618349523841



