ATOMIC_SPECIES
   Tl  204.3830000000  Tl.pw86pbe-n-kjpaw_psl.1.0.0.UPF
    I  126.9040000000  I.pw86pbe-n-kjpaw_psl.1.0.0.UPF

ATOMIC_POSITIONS crystal
Tl      0.38601300000000      0.61398700000000      0.75000000000000
Tl      0.61398700000000      0.38601300000000      0.25000000000000
 I      0.13258400000000      0.86741600000000      0.75000000000000
 I      0.86741600000000      0.13258400000000      0.25000000000000

K_POINTS automatic
2  2  3   0 0 0

CELL_PARAMETERS
    13.39297219107086      0.00000000000000      0.00000000000000
   -10.39710828727534      8.44226529869015      0.00000000000000
     0.00000000000000      0.00000000000000     10.03029452226812



