 &control
    calculation = 'vc-relax',
    restart_mode = 'from_scratch',
    prefix = 'NaCl_pegs+pwscf',
    tstress = .true.,
    tprnfor = .true.,
    pseudo_dir = '/projects/e20438/bin/espresso/pseudo',
    outdir='./'
 /
 &system
    ibrav =  0, 
    nat =  2, 
    ntyp = 2,
    ecutwfc = 60.0,
    ecutrho = 240.0
 /
 &electrons
    diagonalization='cg',
    mixing_mode = 'plain',
    mixing_beta = 0.7,
    conv_thr =  1.0d-8
 /
 &ions
    ion_dynamics='bfgs'
    trust_radius_min = 1.0d-8
 /
 &cell
    cell_dynamics='bfgs'
 /

CELL_PARAMETERS
7.7015797227540 0 0
4.1209266715110 6.4302207805980 0
-3.5785241152230 2.2931944131000 6.1648890807270

ATOMIC_SPECIES
 Na 22.98977 Na.pbe-spn-kjpaw_psl.0.2.UPF
 Cl 35.4527 Cl.pbe-n-kjpaw_psl.0.1.UPF

K_POINTS automatic
  12 12 12 0 0 0 

ATOMIC_POSITIONS crystal
Na       0.314940550525      0.722478189521      0.166964539918
Cl       0.315246633005      0.222320985342      0.667105273901
