&SYSTEM
    ibrav = 0
      nat = 2
     ntyp = 2
/

CELL_PARAMETERS angstrom
    4.01672092000000 0.00000000000000 0.00000000000000
    0.00373274000000 3.99167018000000 0.00000000000000
    2.08474053000000 1.93347542000000 2.82834036000000

ATOMIC_SPECIES
    Na 22.98976928
    Cl 35.45000000

ATOMIC_POSITIONS crystal
    Na 0.28561535468500 0.64479406297000 0.93484881639700
    Cl 0.78606074994200 0.14527519042600 0.93484356876500
