&SYSTEM
    ibrav = 0
      nat = 2
     ntyp = 2
/

CELL_PARAMETERS angstrom
    4.04065331000000  0.00000000000000 0.00000000000000
    2.05171331000000  3.45854460000000 0.00000000000000
    1.98890576000000 -1.18071227000000 3.24355681000000

ATOMIC_SPECIES
    Na 22.98976928
    Cl 35.45000000

ATOMIC_POSITIONS crystal
    Na 0.75147739369400 0.14732721273700 0.89754670256300
    Cl 0.75149000463100 0.64723166762100 0.39763398607100
