&SYSTEM
    ibrav = 0
      nat = 2
     ntyp = 2
/

CELL_PARAMETERS angstrom
     5.65975324000000 0.00000000000000 0.00000000000000
    -0.27940963000000 3.94025639000000 0.00000000000000
     2.65051676000000 1.94632529000000 2.04639297000000

ATOMIC_SPECIES
    Na 22.98976928
    Cl 35.45000000

ATOMIC_POSITIONS crystal
    Na 0.15203919993600 0.87855930718700 0.76106752659300
    Cl 0.65711323682500 0.88870695572900 0.75131186712400
