&SYSTEM
    ibrav = 0
      nat = 2
     ntyp = 2
/

CELL_PARAMETERS angstrom
     3.82001939000000  0.00000000000000 0.00000000000000
    -1.57613870000000  3.60487827000000 0.00000000000000
     5.39611428000000 -1.13768599000000 3.36445499000000

ATOMIC_SPECIES
    Na 22.98976928
    Cl 35.45000000

ATOMIC_POSITIONS crystal
    Na 0.42690316097600 0.61688162053100 0.52702871489000
    Cl 0.45779436381300 0.13320791917900 0.00993296673800
