&SYSTEM
    ibrav = 0
      nat = 2
     ntyp = 2
/

CELL_PARAMETERS angstrom
    5.23757935000000  0.00000000000000 0.00000000000000
    1.50846710000000  3.56411279000000 0.00000000000000
    2.33060924000000 -0.98715860000000 2.40893805000000

ATOMIC_SPECIES
    Na 22.98976928
    Cl 35.45000000

ATOMIC_POSITIONS crystal
    Na 0.30997149156700 0.15483508879500 0.24777721487900
    Cl 0.64122622919100 0.48012098366700 0.41645950391100
