&SYSTEM
    ibrav = 0
      nat = 2
     ntyp = 2
/

CELL_PARAMETERS angstrom
    4.12573100000000 0.00000000000000 0.00000000000000
    1.85987199000000 3.30500851000000 0.00000000000000
    3.98438124000000 2.10957836000000 3.41641057000000

ATOMIC_SPECIES
    Na 22.98976928
    Cl 35.45000000

ATOMIC_POSITIONS crystal
    Na 0.11003135019400 0.76957375518800 0.86681174507900
    Cl 0.14409468125200 0.76834771136700 0.34985027115000
