&SYSTEM
    ibrav = 0
      nat = 2
     ntyp = 2
/

CELL_PARAMETERS angstrom
     3.94086949000000 0.00000000000000 0.00000000000000
    -0.00000307000000 4.06265688000000 0.00000000000000
     1.89244812000000 2.27601983000000 2.81832306000000

ATOMIC_SPECIES
    Na 22.98976928
    Cl 35.45000000

ATOMIC_POSITIONS crystal
    Na 0.44075460166300 0.09691647491200 0.53908036786500
    Cl 0.94075420807500 0.59691697828100 0.53908028670500
