&SYSTEM
    ibrav = 0
      nat = 2
     ntyp = 2
/

CELL_PARAMETERS angstrom
    3.98977950000000  0.00000000000000 0.00000000000000
    2.13641248000000  3.47068157000000 0.00000000000000
    1.85361135000000 -1.14150340000000 3.27020503000000

ATOMIC_SPECIES
    Na 22.98976928
    Cl 35.45000000

ATOMIC_POSITIONS crystal
    Na 0.86805742401600 0.04880679566900 0.92449040920300
    Cl 0.86806434228800 0.54869133219200 0.42454268952400
