&SYSTEM
    ibrav = 0
      nat = 2
     ntyp = 2
/

CELL_PARAMETERS angstrom
    3.86767955000000  0.00000000000000 0.00000000000000
    2.14743535000000  3.51942452000000 0.00000000000000
    1.72013817000000 -1.04993232000000 3.31347005000000

ATOMIC_SPECIES
    Na 22.98976928
    Cl 35.45000000

ATOMIC_POSITIONS crystal
    Na 0.65059148298700 0.20175586563500 0.73344313938200
    Cl 0.65061902447600 0.70172457043100 0.23345112194400
