&SYSTEM
    ibrav = 0
      nat = 2
     ntyp = 2
/

CELL_PARAMETERS angstrom
     5.19806951000000 0.00000000000000 0.00000000000000
     1.43286972000000 3.58837545000000 0.00000000000000
    -0.93467345000000 4.53375410000000 2.41007790000000

ATOMIC_SPECIES
    Na 22.98976928
    Cl 35.45000000

ATOMIC_POSITIONS crystal
    Na 0.52580798890400 0.03520986637400 0.86607078105600
    Cl 0.85607369670200 0.54020188246400 0.69631399299300
